# GAMESS comparison
# version: March 25, 2010 R2

 $CONTRL SCFTYP=rhf RUNTYP=energy units=bohr $END
 $SYSTEM TIMLIM=30000000 MEMORY=25000000 $END
 $SCF DIRSCF=.TRUE. $END
 $GUESS GUESS=HCORE $END
 $BASIS GBASIS=n21 NGAUSS=3 $END
 $DATA
 benzene-321 
 C1 
C 2.5501569803 -0.0104344206 -0.59580803
C 1.2636645188 -2.2732023787 -0.3065150533
C -1.286260602 -2.2627689068 0.289238806
C -2.5501569803 0.0104344206 0.59580803
C -1.2636645188 2.2732023787 0.3065150533
C 1.286260602 2.2627689068 -0.289238806
H 4.5300958729 -0.0185356926 -1.0583926866
H 2.2847329285 4.0197166197 -0.5137610037
H -2.2445919193 4.0382491576 0.5444515439
H -4.5300958729 0.0185356926 1.0583926866
H -2.2847329285 -4.0197166197 0.5137610037
H 2.2445919193 -4.0382491576 -0.5444515439 
 $end

